(set-logic BV)

(synth-fun f ((r (_ BitVec 32)) (s (_ BitVec 32)) (t (_ BitVec 32))) (_ BitVec 32)
  ((Start (_ BitVec 32)))
  (
   (Start (_ BitVec 32) (
     r
     s
     t
     ; #x00000000
     ; #x80000000 ; min_val
     ; #x78888888 ; max_val
     (bvneg  Start)
     (bvnot  Start)
     (bvadd  Start Start)
     (bvmul  Start Start)
     (bvsub  Start Start)
     (bvand  Start Start)
     (bvlshr Start Start)
     (bvor   Start Start)
     (bvshl  Start Start)
   ))
))

(check-synth)
